(set-logic HORN)
(declare-datatypes ((Nat_1 0)) (((Z_1 ) (S_1 (unS_0 Nat_1)))))
(declare-fun diseqNat_0 (Nat_1 Nat_1) Bool)
(declare-fun unS_1 (Nat_1 Nat_1) Bool)
(declare-fun isZ_0 (Nat_1) Bool)
(declare-fun isS_0 (Nat_1) Bool)
(assert (forall ((x_24 Nat_1) (x_23 Nat_1))
	(=> (= x_24 (S_1 x_23))
	    (unS_1 x_23 x_24))))
(assert (isZ_0 Z_1))
(assert (forall ((x_25 Nat_1))
	(isS_0 (S_1 x_25))))
(assert (forall ((x_26 Nat_1))
	(diseqNat_0 Z_1 (S_1 x_26))))
(assert (forall ((x_27 Nat_1))
	(diseqNat_0 (S_1 x_27) Z_1)))
(assert (forall ((x_28 Nat_1) (x_29 Nat_1))
	(=> (diseqNat_0 x_28 x_29)
	    (diseqNat_0 (S_1 x_28) (S_1 x_29)))))
(declare-fun add_0 (Nat_1 Nat_1 Nat_1) Bool)
(declare-fun minus_0 (Nat_1 Nat_1 Nat_1) Bool)
(declare-fun le_0 (Nat_1 Nat_1) Bool)
(declare-fun ge_0 (Nat_1 Nat_1) Bool)
(declare-fun lt_0 (Nat_1 Nat_1) Bool)
(declare-fun gt_0 (Nat_1 Nat_1) Bool)
(declare-fun mult_0 (Nat_1 Nat_1 Nat_1) Bool)
(declare-fun div_0 (Nat_1 Nat_1 Nat_1) Bool)
(declare-fun mod_0 (Nat_1 Nat_1 Nat_1) Bool)
(assert (forall ((y_4 Nat_1))
	(add_0 y_4 Z_1 y_4)))
(assert (forall ((x_21 Nat_1) (y_4 Nat_1) (r_0 Nat_1))
	(=> (add_0 r_0 x_21 y_4)
	    (add_0 (S_1 r_0) (S_1 x_21) y_4))))
(assert (forall ((y_4 Nat_1))
	(minus_0 Z_1 Z_1 y_4)))
(assert (forall ((x_21 Nat_1) (y_4 Nat_1) (r_0 Nat_1))
	(=> (minus_0 r_0 x_21 y_4)
	    (minus_0 (S_1 r_0) (S_1 x_21) y_4))))
(assert (forall ((y_4 Nat_1))
	(le_0 Z_1 y_4)))
(assert (forall ((x_21 Nat_1) (y_4 Nat_1))
	(=> (le_0 x_21 y_4)
	    (le_0 (S_1 x_21) (S_1 y_4)))))
(assert (forall ((y_4 Nat_1))
	(ge_0 y_4 Z_1)))
(assert (forall ((x_21 Nat_1) (y_4 Nat_1))
	(=> (ge_0 x_21 y_4)
	    (ge_0 (S_1 x_21) (S_1 y_4)))))
(assert (forall ((y_4 Nat_1))
	(lt_0 Z_1 (S_1 y_4))))
(assert (forall ((x_21 Nat_1) (y_4 Nat_1))
	(=> (lt_0 x_21 y_4)
	    (lt_0 (S_1 x_21) (S_1 y_4)))))
(assert (forall ((y_4 Nat_1))
	(gt_0 (S_1 y_4) Z_1)))
(assert (forall ((x_21 Nat_1) (y_4 Nat_1))
	(=> (gt_0 x_21 y_4)
	    (gt_0 (S_1 x_21) (S_1 y_4)))))
(assert (forall ((y_4 Nat_1))
	(mult_0 Z_1 Z_1 y_4)))
(assert (forall ((x_21 Nat_1) (y_4 Nat_1) (r_0 Nat_1) (z_2 Nat_1))
	(=>	(and (mult_0 r_0 x_21 y_4)
			(add_0 z_2 r_0 y_4))
		(mult_0 z_2 (S_1 x_21) y_4))))
(assert (forall ((x_21 Nat_1) (y_4 Nat_1))
	(=> (lt_0 x_21 y_4)
	    (div_0 Z_1 x_21 y_4))))
(assert (forall ((x_21 Nat_1) (y_4 Nat_1) (r_0 Nat_1) (z_2 Nat_1))
	(=>	(and (ge_0 x_21 y_4)
			(minus_0 z_2 x_21 y_4)
			(div_0 r_0 z_2 y_4))
		(div_0 (S_1 r_0) x_21 y_4))))
(assert (forall ((x_21 Nat_1) (y_4 Nat_1))
	(=> (lt_0 x_21 y_4)
	    (mod_0 x_21 x_21 y_4))))
(assert (forall ((x_21 Nat_1) (y_4 Nat_1) (r_0 Nat_1) (z_2 Nat_1))
	(=>	(and (ge_0 x_21 y_4)
			(minus_0 z_2 x_21 y_4)
			(mod_0 r_0 z_2 y_4))
		(mod_0 r_0 x_21 y_4))))
(declare-datatypes ((list_0 0)) (((nil_0 ) (cons_0 (head_0 Nat_1) (tail_0 list_0)))))
(declare-fun diseqlist_0 (list_0 list_0) Bool)
(declare-fun head_1 (Nat_1 list_0) Bool)
(declare-fun tail_1 (list_0 list_0) Bool)
(declare-fun isnil_0 (list_0) Bool)
(declare-fun iscons_0 (list_0) Bool)
(assert (forall ((x_33 list_0) (x_31 Nat_1) (x_32 list_0))
	(=> (= x_33 (cons_0 x_31 x_32))
	    (head_1 x_31 x_33))))
(assert (forall ((x_33 list_0) (x_31 Nat_1) (x_32 list_0))
	(=> (= x_33 (cons_0 x_31 x_32))
	    (tail_1 x_32 x_33))))
(assert (isnil_0 nil_0))
(assert (forall ((x_34 Nat_1) (x_35 list_0))
	(iscons_0 (cons_0 x_34 x_35))))
(assert (forall ((x_36 Nat_1) (x_37 list_0))
	(diseqlist_0 nil_0 (cons_0 x_36 x_37))))
(assert (forall ((x_38 Nat_1) (x_39 list_0))
	(diseqlist_0 (cons_0 x_38 x_39) nil_0)))
(assert (forall ((x_40 Nat_1) (x_41 list_0) (x_42 Nat_1) (x_43 list_0))
	(=> (diseqNat_0 x_40 x_42)
	    (diseqlist_0 (cons_0 x_40 x_41) (cons_0 x_42 x_43)))))
(assert (forall ((x_40 Nat_1) (x_41 list_0) (x_42 Nat_1) (x_43 list_0))
	(=> (diseqlist_0 x_41 x_43)
	    (diseqlist_0 (cons_0 x_40 x_41) (cons_0 x_42 x_43)))))
(declare-datatypes ((Nat_0 0)) (((Z_0 ) (S_0 (projS_0 Nat_0)))))
(declare-fun diseqNat_1 (Nat_0 Nat_0) Bool)
(declare-fun projS_1 (Nat_0 Nat_0) Bool)
(declare-fun isZ_1 (Nat_0) Bool)
(declare-fun isS_1 (Nat_0) Bool)
(assert (forall ((x_46 Nat_0) (x_45 Nat_0))
	(=> (= x_46 (S_0 x_45))
	    (projS_1 x_45 x_46))))
(assert (isZ_1 Z_0))
(assert (forall ((x_47 Nat_0))
	(isS_1 (S_0 x_47))))
(assert (forall ((x_48 Nat_0))
	(diseqNat_1 Z_0 (S_0 x_48))))
(assert (forall ((x_49 Nat_0))
	(diseqNat_1 (S_0 x_49) Z_0)))
(assert (forall ((x_50 Nat_0) (x_51 Nat_0))
	(=> (diseqNat_1 x_50 x_51)
	    (diseqNat_1 (S_0 x_50) (S_0 x_51)))))
(declare-fun length_0 (Nat_0 list_0) Bool)
(assert (forall ((x_0 list_0) (y_0 Nat_1) (xs_0 list_0) (x_5 Nat_0) (x_6 Nat_0))
	(=>	(and (= x_5 (S_0 x_6))
			(length_0 x_6 xs_0)
			(= x_0 (cons_0 y_0 xs_0)))
		(length_0 x_5 x_0))))
(assert (forall ((x_0 list_0) (x_7 Nat_0))
	(=>	(and (= x_7 Z_0)
			(= x_0 nil_0))
		(length_0 x_7 x_0))))
(declare-fun half_0 (Nat_0 Nat_0) Bool)
(assert (forall ((x_1 Nat_0) (y_1 Nat_0) (z_0 Nat_0) (x_8 Nat_0) (x_9 Nat_0))
	(=>	(and (= x_8 (S_0 x_9))
			(half_0 x_9 z_0)
			(= x_1 (S_0 y_1))
			(= y_1 (S_0 z_0)))
		(half_0 x_8 x_1))))
(assert (forall ((x_1 Nat_0) (y_1 Nat_0) (x_10 Nat_0))
	(=>	(and (= x_10 Z_0)
			(= x_1 (S_0 y_1))
			(= y_1 Z_0))
		(half_0 x_10 x_1))))
(assert (forall ((x_1 Nat_0) (x_11 Nat_0))
	(=>	(and (= x_11 Z_0)
			(= x_1 Z_0))
		(half_0 x_11 x_1))))
(declare-fun x_2 (list_0 list_0 list_0) Bool)
(assert (forall ((x_3 list_0) (y_2 list_0) (z_1 Nat_1) (xs_1 list_0) (x_12 list_0) (x_13 list_0))
	(=>	(and (= x_12 (cons_0 z_1 x_13))
			(x_2 x_13 xs_1 y_2)
			(= x_3 (cons_0 z_1 xs_1)))
		(x_2 x_12 x_3 y_2))))
(assert (forall ((x_3 list_0) (y_2 list_0) (x_14 list_0))
	(=>	(and (= x_14 y_2)
			(= x_3 nil_0))
		(x_2 x_14 x_3 y_2))))
(assert (forall ((x_4 list_0) (y_3 list_0) (x_15 list_0) (x_16 Nat_0) (x_17 Nat_0) (x_18 list_0) (x_19 Nat_0) (x_20 Nat_0))
	(=>	(and (diseqNat_1 x_17 x_20)
			(x_2 x_15 x_4 y_3)
			(length_0 x_16 x_15)
			(half_0 x_17 x_16)
			(x_2 x_18 y_3 x_4)
			(length_0 x_19 x_18)
			(half_0 x_20 x_19))
		false)))
(check-sat)
